
Welcome to IBM(R) ILOG(R) CPLEX(R) Interactive Optimizer 22.1.1.0
  with Simplex, Mixed Integer & Barrier Optimizers
5725-A06 5725-A29 5724-Y48 5724-Y49 5724-Y54 5724-Y55 5655-Y21
Copyright IBM Corp. 1988, 2022.  All Rights Reserved.

Type 'help' for a list of available commands.
Type 'help' followed by a command name for more
information on commands.

CPLEX> Selected objective sense:  MINIMIZE
Selected objective  name:  00000000
Selected RHS        name:  RHS1
Selected bound      name:  BOUND
Problem 'ee.mps' read.
Read time = 0.03 sec. (3.17 ticks)
CPLEX> New value for time limit in seconds: 7200
CPLEX> New value for parallel optimization mode: -1
CPLEX> New value for default parallel thread count: 40
CPLEX> New value for mixed integer optimality gap tolerance: 1e-13
CPLEX> Version identifier: 22.1.1.0 | 2022-11-28 | 9160aff4d
CPXPARAM_Threads                                 40
CPXPARAM_Parallel                                -1
CPXPARAM_TimeLimit                               7200
CPXPARAM_MIP_Tolerances_MIPGap                   1e-13
Found incumbent of value 0.000000 after 0.00 sec. (0.31 ticks)
Tried aggregator 2 times.
MIP Presolve eliminated 273 rows and 3331 columns.
MIP Presolve modified 6105 coefficients.
Aggregator did 873 substitutions.
Reduced MIP has 3382 rows, 7061 columns, and 26173 nonzeros.
Reduced MIP has 7061 binaries, 0 generals, 0 SOSs, and 0 indicators.
Presolve time = 0.07 sec. (70.41 ticks)
Probing fixed 24 vars, tightened 0 bounds.
Probing time = 0.06 sec. (28.74 ticks)
Tried aggregator 2 times.
Detecting symmetries...
MIP Presolve eliminated 28 rows and 46 columns.
Aggregator did 2 substitutions.
Reduced MIP has 3352 rows, 7007 columns, and 25999 nonzeros.
Reduced MIP has 7007 binaries, 0 generals, 0 SOSs, and 0 indicators.
Presolve time = 0.04 sec. (46.93 ticks)
Probing time = 0.02 sec. (5.07 ticks)
Clique table members: 16815.
MIP emphasis: balance optimality and feasibility.
MIP search method: dynamic search.
Parallel mode: opportunistic, using up to 40 threads.
Root relaxation solution time = 0.12 sec. (113.22 ticks)

        Nodes                                         Cuts/
   Node  Left     Objective  IInf  Best Integer    Best Bound    ItCnt     Gap

*     0+    0                            0.0000  -1.54000e+13              --- 
*     0+    0                      -4.79000e+12  -1.54000e+13           221.50%
*     0+    0                      -6.00000e+12  -1.54000e+13           156.67%
*     0+    0                      -7.20000e+12  -1.54000e+13           113.89%
      0     0  -1.53900e+13    32  -7.20000e+12  -1.53900e+13     2365  113.75%
*     0+    0                      -1.53900e+13  -1.53900e+13             0.00%
      0     0  -1.53900e+13    72  -1.53900e+13      Cuts: 45     3110    0.00%
*     0+    0                      -1.53900e+13  -1.53900e+13             0.00%
      0     0  -1.53900e+13   149  -1.53900e+13      Cuts: 69     3411    0.00%
*     0+    0                      -1.53900e+13  -1.53900e+13             0.00%
*     0+    0                      -1.53900e+13  -1.53900e+13             0.00%
*     0+    0                      -1.53900e+13  -1.53900e+13             0.00%
      0    30        cutoff        -1.53900e+13  -1.53900e+13     9735    0.00%
Elapsed time = 2.15 sec. (1094.70 ticks, tree = 0.02 MB, solutions = 9)
    467    41  -1.53900e+13   221  -1.53900e+13  -1.53900e+13    14329    0.00%
   1779    85  -1.53900e+13    74  -1.53900e+13  -1.53900e+13    21612    0.00%
   2912   110  -1.53900e+13    83  -1.53900e+13  -1.53900e+13    34368    0.00%
   3565   316  -1.53900e+13   171  -1.53900e+13  -1.53900e+13    66209    0.00%
   3948   607        cutoff        -1.53900e+13  -1.53900e+13   124662    0.00%
   4425  1107  -1.53900e+13    96  -1.53900e+13  -1.53900e+13   219664    0.00%
   5005   994        cutoff        -1.53900e+13  -1.53900e+13   196921    0.00%
   5815  1049        cutoff        -1.53900e+13  -1.53900e+13   204805    0.00%
   6638  1680  -1.53900e+13    72  -1.53900e+13  -1.53900e+13   306342    0.00%
  10384  1761  -1.53900e+13    86  -1.53900e+13  -1.53900e+13   321699    0.00%
Elapsed time = 7.45 sec. (4197.16 ticks, tree = 26.94 MB, solutions = 21)
  12457  2950  -1.53900e+13   117  -1.53900e+13  -1.53900e+13   471689    0.00%

Performing restart 1

Repeating presolve.
Tried aggregator 2 times.
MIP Presolve eliminated 644 rows and 1711 columns.
MIP Presolve modified 2217 coefficients.
Aggregator did 245 substitutions.
Reduced MIP has 2387 rows, 5032 columns, and 18093 nonzeros.
Reduced MIP has 5032 binaries, 0 generals, 0 SOSs, and 0 indicators.
Presolve time = 0.05 sec. (47.08 ticks)
Tried aggregator 2 times.
MIP Presolve eliminated 28 rows and 60 columns.
Aggregator did 4 substitutions.
Reduced MIP has 2355 rows, 4962 columns, and 17855 nonzeros.
Reduced MIP has 4962 binaries, 0 generals, 0 SOSs, and 0 indicators.
Presolve time = 0.03 sec. (29.52 ticks)
Tried aggregator 1 time.
Reduced MIP has 2355 rows, 4962 columns, and 17855 nonzeros.
Reduced MIP has 4962 binaries, 0 generals, 0 SOSs, and 0 indicators.
Presolve time = 0.02 sec. (12.97 ticks)
Represolve time = 0.29 sec. (163.37 ticks)
  12479     0  -1.53900e+13   276  -1.53900e+13      Cuts: 28   687223    0.00%
  12479     0  -1.53900e+13   260  -1.53900e+13      Cuts: 23   687383    0.00%
  12479     0  -1.53900e+13   301  -1.53900e+13      Cuts: 27   687489    0.00%
  12479     0  -1.53900e+13   262  -1.53900e+13      Cuts: 20   687563    0.00%
  12479     0  -1.53900e+13   258  -1.53900e+13       Cuts: 7   687625    0.00%
  12479     0  -1.53900e+13   266  -1.53900e+13      Cuts: 12   687675    0.00%
  12479     0  -1.53900e+13   246  -1.53900e+13      Cuts: 19   687784    0.00%
  12479     0  -1.53900e+13   270  -1.53900e+13      Cuts: 17   687855    0.00%
  12479     0  -1.53900e+13   289  -1.53900e+13      Cuts: 14   687928    0.00%
  12479     0  -1.53900e+13   285  -1.53900e+13       Cuts: 7   688024    0.00%
  12479     0  -1.53900e+13   320  -1.53900e+13      Cuts: 13   688099    0.00%
  12479     0  -1.53900e+13   308  -1.53900e+13      Cuts: 16   688148    0.00%
  12479     0  -1.53900e+13   327  -1.53900e+13       Cuts: 9   688188    0.00%
  12479     0  -1.53900e+13   322  -1.53900e+13       Cuts: 9   688234    0.00%
  12479     0  -1.53900e+13   301  -1.53900e+13      Cuts: 15   688294    0.00%
  12479     0  -1.53900e+13   324  -1.53900e+13       Cuts: 6   688325    0.00%
  12479    34        cutoff        -1.53900e+13  -1.53900e+13   698383    0.00%
  13583    91  -1.53900e+13    19  -1.53900e+13  -1.53900e+13   727057    0.00%
  16039    87  -1.53900e+13   124  -1.53900e+13  -1.53900e+13   725324    0.00%
  17984    88  -1.53900e+13   313  -1.53900e+13  -1.53900e+13   726586    0.00%
  18593    42        cutoff        -1.53900e+13  -1.53900e+13  1056493    0.00%

GUB cover cuts applied:  1
Clique cuts applied:  7
Cover cuts applied:  273
Mixed integer rounding cuts applied:  26
Zero-half cuts applied:  84
Lift and project cuts applied:  2
Gomory fractional cuts applied:  17

Root node processing (before b&c):
  Real time             =    1.21 sec. (1081.40 ticks)
Parallel b&c, 40 threads:
  Real time             =   17.02 sec. (11289.93 ticks)
  Sync time (average)   =    4.18 sec.
  Wait time (average)   =    0.11 sec.
                          ------------
Total (root+branch&cut) =   18.23 sec. (12371.33 ticks)

Solution pool: 25 solutions saved.

MIP - Integer optimal solution:  Objective = -1.5389999889e+13
Solution time =   18.35 sec.  Iterations = 1099016  Nodes = 18739
Deterministic time = 12371.36 ticks  (674.18 ticks/sec)

CPLEX> Solution 'p26' written to file 'ee.sol'.
CPLEX> 